HFSDDW
15	12	4
0	59	1	55	2	64	3	37
0	78	1	75	2	9	3	13
0	16	1	35	2	5	3	59
0	23	1	85	2	74	3	96
0	33	1	21	2	64	3	5
0	32	1	22	2	31	3	7
0	97	1	42	2	19	3	49
0	7	1	72	2	4	3	7
0	32	1	13	2	80	3	51
0	34	1	46	2	78	3	52
0	71	1	46	2	83	3	81
0	16	1	64	2	12	3	60
0	77	1	61	2	58	3	12
0	88	1	76	2	61	3	38
0	24	1	58	2	40	3	36
LBCmax: 321
RELDUE
-1	197	8	4
-1	199	5	9
-1	164	4	3
-1	188	6	7
-1	180	5	2
-1	225	9	2
-1	178	6	5
-1	166	4	3
-1	163	7	1
-1	175	4	9
-1	200	2	4
-1	217	4	5
-1	188	2	4
-1	167	1	5
-1	182	5	9
DDW
181	213
185	213
151	177
179	197
166	194
202	248
164	192
154	178
161	165
173	177
180	220
197	237
175	201
162	172
175	189
